[[8, 19, 35, 7, 53, 14, 59, 11, 66, 65, 38, 10, 58, 72, 12, 9, 39, 31], [25, 55, 18, 50, 32, 44, 3, 40, 17, 51, 6], [16, 49, 24, 56, 23, 63, 33, 43, 41, 42, 64], [22, 62, 73, 2, 74, 28, 61, 21, 47, 69, 36, 71, 60, 70, 20, 37], [57, 15, 5, 29, 48, 45, 30, 4, 68, 75, 76, 26, 67, 34, 46, 52, 27, 13, 54]]